
  12    4
  10   10   10   10

   0   0   0   0   0   3 2 3 7 
   5  10  10  10  10   3 11 6 4 
   3  10  10  10  10   2 6 4 
   3  10  10  10  10   2 10 5 
   1  10  10  10  10   2 9 8 
   7  10  10  10  10   2 9 8 
   3  10  10  10  10   1 8 
   6  10  10  10  10   1 12
   8  10  10  10  10   1 12
   7  10  10  10  10   1 12
   7  10  10  10  10   1 12
   0   0   0   0   0   0 
